
The following have been reloaded with a version change:
  1) mii/1.1.1 => mii/1.1.2

===INSTANCE START
ALG: MIP-ADD
Instance Name: random-100-6.00-0.json
Set parameter TokenServer to value "nia-license"
Set parameter TimeLimit to value 1800
Set parameter SoftMemLimit to value 8
Set parameter Threads to value 1
Gurobi Optimizer version 12.0.0 build v12.0.0rc1 (linux64 - "CentOS Linux 7 (Core)")

CPU model: Intel(R) Xeon(R) Gold 6148 CPU @ 2.40GHz, instruction set [SSE2|AVX|AVX2|AVX512]
Thread count: 40 physical cores, 80 logical processors, using up to 1 threads

Non-default parameters:
TimeLimit  1800
SoftMemLimit  8
Threads  1

Optimize a model with 127382 rows, 1000000 columns and 543971740 nonzeros
Model fingerprint: 0x7b93a0d3
Variable types: 0 continuous, 1000000 integer (1000000 binary)
Coefficient statistics:
  Matrix range     [1e+00, 2e+02]
  Objective range  [1e+00, 1e+02]
  Bounds range     [1e+00, 1e+00]
  RHS range        [1e+00, 1e+02]

Explored 0 nodes (0 simplex iterations) in 4.75 seconds (0.00 work units)
Thread count was 1 (of 80 available processors)

Solution count 0

Memory limit reached
Best objective -, best bound -, gap -
Obj: inf
Time: 4.74606
Memory Used (MiB): 13063.44
ALGORITHM END
---RESULTS END
time limit is: 1800
model used is: MIP-add-nofirst
batch num is: random-100-6.00-0
/gpfs/fs0/scratch/b/beck/pekardan
/gpfs/fs0/scratch/b/beck/pekardan/MIP-add-nofirst.py
/gpfs/fs0/scratch/b/beck/pekardan/MIP-add-nofirst.py:106: DeprecationWarning: Calling quicksum on a tupledict is deprecated, use .sum() instead.
  m.addConstr(gp.quicksum(last_edge) == 1)
===INSTANCE START
ALG: MIP-ADD
Instance Name: random-150-60.00-0.json
Set parameter TokenServer to value "nia-license"
Set parameter TimeLimit to value 1800
Set parameter SoftMemLimit to value 8
Set parameter Threads to value 1
Gurobi Optimizer version 12.0.0 build v12.0.0rc1 (linux64 - "CentOS Linux 7 (Core)")

CPU model: Intel(R) Xeon(R) Gold 6148 CPU @ 2.40GHz, instruction set [SSE2|AVX|AVX2|AVX512]
Thread count: 40 physical cores, 80 logical processors, using up to 1 threads

Non-default parameters:
TimeLimit  1800
SoftMemLimit  8
Threads  1

Optimize a model with 125852 rows, 3375000 columns and 927620850 nonzeros
Model fingerprint: 0xd071f643
Variable types: 0 continuous, 3375000 integer (3375000 binary)
Coefficient statistics:
  Matrix range     [1e+00, 3e+02]
  Objective range  [1e+00, 1e+02]
  Bounds range     [1e+00, 1e+00]
  RHS range        [1e+00, 2e+02]

Explored 0 nodes (0 simplex iterations) in 8.15 seconds (0.00 work units)
Thread count was 1 (of 80 available processors)

Solution count 0

Memory limit reached
Best objective -, best bound -, gap -
Obj: inf
Time: 8.15069
Memory Used (MiB): 23153.36
ALGORITHM END
---RESULTS END
time limit is: 1800
model used is: MIP-add-nofirst
batch num is: random-150-60.00-0
/gpfs/fs0/scratch/b/beck/pekardan
/gpfs/fs0/scratch/b/beck/pekardan/MIP-add-nofirst.py
/gpfs/fs0/scratch/b/beck/pekardan/MIP-add-nofirst.py:106: DeprecationWarning: Calling quicksum on a tupledict is deprecated, use .sum() instead.
  m.addConstr(gp.quicksum(last_edge) == 1)
slurmstepd: error: *** JOB 14310493 ON nia0368 CANCELLED AT 2025-03-20T13:31:52 DUE TO TIME LIMIT ***

scontrol show job 14310493
JobId=14310493 JobName=mip-both-nofirst-sbatch.sh
   UserId=pekardan(3144906) GroupId=beck(6007069) MCS_label=N/A
   Priority=1192512 Nice=0 Account=def-beck QOS=normal
   JobState=COMPLETING Reason=TimeLimit Dependency=(null)
   Requeue=0 Restarts=0 BatchFlag=1 Reboot=0 ExitCode=0:15
   RunTime=02:30:28 TimeLimit=02:30:00 TimeMin=N/A
   SubmitTime=2025-03-20T11:01:18 EligibleTime=2025-03-20T11:01:18
   AccrueTime=2025-03-20T11:01:18
   StartTime=2025-03-20T11:01:24 EndTime=2025-03-20T13:31:52 Deadline=N/A
   SuspendTime=None SecsPreSuspend=0 LastSchedEval=2025-03-20T11:01:24 Scheduler=Backfill
   Partition=compute AllocNode:Sid=nia-login03:233287
   ReqNodeList=(null) ExcNodeList=(null)
   NodeList=nia0368
   BatchHost=nia0368
   NumNodes=1 NumCPUs=80 NumTasks=11 CPUs/Task=2 ReqB:S:C:T=0:0:*:*
   ReqTRES=cpu=22,mem=175000M,node=1,billing=11
   AllocTRES=cpu=80,mem=175000M,node=1,billing=40
   Socks/Node=* NtasksPerN:B:S:C=11:0:*:1 CoreSpec=*
   MinCPUsNode=22 MinMemoryNode=175000M MinTmpDiskNode=0
   Features=[skylake|cascade] DelayBoot=00:00:00
   OverSubscribe=NO Contiguous=0 Licenses=(null) Network=(null)
   Command=/gpfs/fs0/scratch/b/beck/pekardan/mip-both-nofirst-sbatch.sh
   WorkDir=/gpfs/fs0/scratch/b/beck/pekardan
   Comment=/opt/slurm/bin/sbatch --export=NONE mip-both-nofirst-sbatch.sh 
   StdErr=/gpfs/fs0/scratch/b/beck/pekardan/slurm-14310493.out
   StdIn=/dev/null
   StdOut=/gpfs/fs0/scratch/b/beck/pekardan/slurm-14310493.out
   TresPerTask=cpu=2
   MailUser=daniel.pekar@mail.utoronto.ca MailType=INVALID_DEPEND,BEGIN,END,FAIL,REQUEUE,STAGE_OUT
   

sacct -j 14310493
JobID           JobName    Account    Elapsed  MaxVMSize     MaxRSS  SystemCPU    UserCPU ExitCode 
------------ ---------- ---------- ---------- ---------- ---------- ---------- ---------- -------- 
14310493     mip-both-+   def-beck   02:30:28                        00:00.330  00:00.831      0:0 
14310493.ba+      batch   def-beck   02:30:29 123433652K  98883900K  00:00.329  00:00.830     0:15 
14310493.ex+     extern   def-beck   02:30:29    136828K      1032K   00:00:00   00:00:00      0:0 
